NAME : B-n44-k7
COMMENT : (Augerat et al, Min no of trucks: 7, Optimal value: 909)
TYPE : CVRP
DIMENSION : 44
EDGE_WEIGHT_TYPE : EUC_2D 
CAPACITY : 100
NODE_COORD_SECTION 
 1 35 31
 2 77 13
 3 95 51
 4 91 15
 5 65 93
 6 51 17
 7 41 57
 8 39 39
 9 70 102
 10 74 94
 11 81 97
 12 77 95
 13 84 14
 14 48 60
 15 98 54
 16 92 18
 17 42 42
 18 52 18
 19 44 42
 20 48 44
 21 80 22
 22 42 58
 23 73 105
 24 81 101
 25 102 58
 26 82 18
 27 96 58
 28 98 18
 29 84 16
 30 44 44
 31 73 103
 32 96 16
 33 46 48
 34 92 16
 35 44 64
 36 98 22
 37 96 52
 38 46 64
 39 77 103
 40 104 54
 41 58 20
 42 46 64
 43 73 103
 44 94 16
DEMAND_SECTION 
1 0 
2 26 
3 11 
4 22 
5 18 
6 10 
7 9 
8 12 
9 10 
10 12 
11 19 
12 5 
13 18 
14 7 
15 14 
16 14 
17 20 
18 7 
19 4 
20 11 
21 3 
22 22 
23 15 
24 69 
25 26 
26 20 
27 12 
28 22 
29 9 
30 23 
31 7 
32 17 
33 3 
34 18 
35 18 
36 9 
37 4 
38 20 
39 24 
40 3 
41 4 
42 4 
43 23 
44 17 
DEPOT_SECTION 
 1  
 -1  
NODE_PRIORITY_SECTION
1 0
2 2
3 2
4 1
5 1
6 2
7 1
8 1
9 3
10 3
11 2
12 3
13 2
14 1
15 1
16 2
17 1
18 2
19 2
20 2
21 3
22 1
23 3
24 2
25 1
26 2
27 1
28 1
29 2
30 2
31 3
32 1
33 2
34 1
35 1
36 1
37 1
38 1
39 3
40 1
41 2
42 1
43 3
44 1
EOF
